c Lingeling SAT Solver
c 
c Version azf 92032848c138b2f33629ad24394d60a3787a1046
c 
c Copyright (C) 2010-2014 Armin Biere JKU Linz Austria.
c All rights reserved.
c 
c released Don Mai 22 22:08:00 CEST 2014
c compiled Mon Oct  6 05:55:43 PDT 2014
c 
c gcc (Ubuntu 4.8.2-19ubuntu1) 4.8.2
c -Wall -O3 -DNDBLSCR -DNLGLOG -DNDEBUG -DNCHKSOL -DNLGLPICOSAT -DNLGLDRUPLIG
c -DNLGLYALSAT
c Linux ubuntu 3.13.0-32-generic x86_64
c 
c reading input file benchmark-sat/translations/gc-jean-9.cnf
c no embedded options
c found 'p cnf 720 7532' header
c read 720 variables, 7532 clauses, 15624 literals in 0.00 seconds
c 
c  seconds         irredundant          redundant clauses agility   height
c          variables clauses conflicts large ternary binary    glue         MB
c 
c S    0.0     720     7532         0       0      0     0   0  0.0   0.0    0
c S    1.0     327     1777     40386    3428      0  1142  21 12.8  18.9    2
c S    2.1     327     1777     90249    5477      0  1142  19 13.6  20.9    2
c S    5.0     327     1777    227490   13258      0  1142  18 14.5  22.0    3
c S   10.0     327     1777    415051   17527      1  1142  19 14.4  21.1    5
c 
c  seconds         irredundant          redundant clauses agility   height
c          variables clauses conflicts large ternary binary    glue         MB
c 
s UNSATISFIABLE
c
c    0.376   2% simplifying
c   15.644  98% search
c ==================================
c   16.021 100% all
c 
c 661072 decisions, 41263.6 decisions/sec
c 601504 conflicts, 37545.4 conflicts/sec
c 10418712 propagations, 0.7 megaprops/sec
c 16.0 seconds, 11.9 MB
